p cnf 12 50 
-12 -3 7 0
-8 11 5 0
-12 -7 1 0
-9 4 -2 0
-12 5 -11 0
8 -9 -7 0
-9 3 -6 0
4 -1 6 0
11 -3 -8 0
-9 11 3 0
1 -10 4 0
11 -7 -9 0
2 -11 -4 0
12 8 7 0
-11 10 -9 0
-2 -8 -11 0
5 2 -1 0
-9 -1 -12 0
2 6 -4 0
-9 -3 8 0
2 -7 11 0
4 5 3 0
-10 -11 4 0
3 12 -7 0
6 10 -2 0
-1 -10 -7 0
6 10 -7 0
-8 -12 -10 0
-11 -8 -6 0
9 -12 1 0
6 -10 -4 0
7 10 -3 0
6 -11 -4 0
6 -7 2 0
6 -3 8 0
-6 3 10 0
2 1 -4 0
3 -4 -9 0
9 -10 6 0
-11 4 -5 0
7 -12 5 0
2 -3 -10 0
8 3 1 0
1 -5 11 0
1 -7 10 0
2 -11 9 0
12 6 4 0
-10 9 -2 0
6 2 -10 0
-12 -4 -6 0
